Minimize
 obj: + y_0 + y_1 + y_2 + y_3 + y_4 + y_5
Subject To
c0: + x0_0+ x0_1+ x0_2+ x0_3+ x0_4+ x0_5 = 1
c1: + x1_0+ x1_1+ x1_2+ x1_3+ x1_4+ x1_5 = 1
c2: + x2_0+ x2_1+ x2_2+ x2_3+ x2_4+ x2_5 = 1
c3: + x3_0+ x3_1+ x3_2+ x3_3+ x3_4+ x3_5 = 1
c4: + x4_0+ x4_1+ x4_2+ x4_3+ x4_4+ x4_5 = 1
c5: + x5_0+ x5_1+ x5_2+ x5_3+ x5_4+ x5_5 = 1
c6: + x6_0+ x6_1+ x6_2+ x6_3+ x6_4+ x6_5 = 1
c7: + x7_0+ x7_1+ x7_2+ x7_3+ x7_4+ x7_5 = 1
c8: + x8_0+ x8_1+ x8_2+ x8_3+ x8_4+ x8_5 = 1
c9: + x9_0+ x9_1+ x9_2+ x9_3+ x9_4+ x9_5 = 1
c10: + x10_0+ x10_1+ x10_2+ x10_3+ x10_4+ x10_5 = 1


c11: + x0_0 - y_0 <= 0
c12: + x0_1 - y_1 <= 0
c13: + x0_2 - y_2 <= 0
c14: + x0_3 - y_3 <= 0
c15: + x0_4 - y_4 <= 0
c16: + x0_5 - y_5 <= 0
c17: + x1_0 - y_0 <= 0
c18: + x1_1 - y_1 <= 0
c19: + x1_2 - y_2 <= 0
c20: + x1_3 - y_3 <= 0
c21: + x1_4 - y_4 <= 0
c22: + x1_5 - y_5 <= 0
c23: + x2_0 - y_0 <= 0
c24: + x2_1 - y_1 <= 0
c25: + x2_2 - y_2 <= 0
c26: + x2_3 - y_3 <= 0
c27: + x2_4 - y_4 <= 0
c28: + x2_5 - y_5 <= 0
c29: + x3_0 - y_0 <= 0
c30: + x3_1 - y_1 <= 0
c31: + x3_2 - y_2 <= 0
c32: + x3_3 - y_3 <= 0
c33: + x3_4 - y_4 <= 0
c34: + x3_5 - y_5 <= 0
c35: + x4_0 - y_0 <= 0
c36: + x4_1 - y_1 <= 0
c37: + x4_2 - y_2 <= 0
c38: + x4_3 - y_3 <= 0
c39: + x4_4 - y_4 <= 0
c40: + x4_5 - y_5 <= 0
c41: + x5_0 - y_0 <= 0
c42: + x5_1 - y_1 <= 0
c43: + x5_2 - y_2 <= 0
c44: + x5_3 - y_3 <= 0
c45: + x5_4 - y_4 <= 0
c46: + x5_5 - y_5 <= 0
c47: + x6_0 - y_0 <= 0
c48: + x6_1 - y_1 <= 0
c49: + x6_2 - y_2 <= 0
c50: + x6_3 - y_3 <= 0
c51: + x6_4 - y_4 <= 0
c52: + x6_5 - y_5 <= 0
c53: + x7_0 - y_0 <= 0
c54: + x7_1 - y_1 <= 0
c55: + x7_2 - y_2 <= 0
c56: + x7_3 - y_3 <= 0
c57: + x7_4 - y_4 <= 0
c58: + x7_5 - y_5 <= 0
c59: + x8_0 - y_0 <= 0
c60: + x8_1 - y_1 <= 0
c61: + x8_2 - y_2 <= 0
c62: + x8_3 - y_3 <= 0
c63: + x8_4 - y_4 <= 0
c64: + x8_5 - y_5 <= 0
c65: + x9_0 - y_0 <= 0
c66: + x9_1 - y_1 <= 0
c67: + x9_2 - y_2 <= 0
c68: + x9_3 - y_3 <= 0
c69: + x9_4 - y_4 <= 0
c70: + x9_5 - y_5 <= 0
c71: + x10_0 - y_0 <= 0
c72: + x10_1 - y_1 <= 0
c73: + x10_2 - y_2 <= 0
c74: + x10_3 - y_3 <= 0
c75: + x10_4 - y_4 <= 0
c76: + x10_5 - y_5 <= 0


c77: + x0_0 + x1_0 <= 1
c78: + x0_0 + x3_0 <= 1
c79: + x0_0 + x6_0 <= 1
c80: + x0_0 + x8_0 <= 1
c81: + x1_0 + x2_0 <= 1
c82: + x1_0 + x5_0 <= 1
c83: + x1_0 + x7_0 <= 1
c84: + x2_0 + x4_0 <= 1
c85: + x2_0 + x6_0 <= 1
c86: + x2_0 + x9_0 <= 1
c87: + x3_0 + x4_0 <= 1
c88: + x3_0 + x5_0 <= 1
c89: + x3_0 + x9_0 <= 1
c90: + x4_0 + x7_0 <= 1
c91: + x4_0 + x8_0 <= 1
c92: + x5_0 + x10_0 <= 1
c93: + x6_0 + x10_0 <= 1
c94: + x7_0 + x10_0 <= 1
c95: + x8_0 + x10_0 <= 1
c96: + x9_0 + x10_0 <= 1
c97: + x0_1 + x1_1 <= 1
c98: + x0_1 + x3_1 <= 1
c99: + x0_1 + x6_1 <= 1
c100: + x0_1 + x8_1 <= 1
c101: + x1_1 + x2_1 <= 1
c102: + x1_1 + x5_1 <= 1
c103: + x1_1 + x7_1 <= 1
c104: + x2_1 + x4_1 <= 1
c105: + x2_1 + x6_1 <= 1
c106: + x2_1 + x9_1 <= 1
c107: + x3_1 + x4_1 <= 1
c108: + x3_1 + x5_1 <= 1
c109: + x3_1 + x9_1 <= 1
c110: + x4_1 + x7_1 <= 1
c111: + x4_1 + x8_1 <= 1
c112: + x5_1 + x10_1 <= 1
c113: + x6_1 + x10_1 <= 1
c114: + x7_1 + x10_1 <= 1
c115: + x8_1 + x10_1 <= 1
c116: + x9_1 + x10_1 <= 1
c117: + x0_2 + x1_2 <= 1
c118: + x0_2 + x3_2 <= 1
c119: + x0_2 + x6_2 <= 1
c120: + x0_2 + x8_2 <= 1
c121: + x1_2 + x2_2 <= 1
c122: + x1_2 + x5_2 <= 1
c123: + x1_2 + x7_2 <= 1
c124: + x2_2 + x4_2 <= 1
c125: + x2_2 + x6_2 <= 1
c126: + x2_2 + x9_2 <= 1
c127: + x3_2 + x4_2 <= 1
c128: + x3_2 + x5_2 <= 1
c129: + x3_2 + x9_2 <= 1
c130: + x4_2 + x7_2 <= 1
c131: + x4_2 + x8_2 <= 1
c132: + x5_2 + x10_2 <= 1
c133: + x6_2 + x10_2 <= 1
c134: + x7_2 + x10_2 <= 1
c135: + x8_2 + x10_2 <= 1
c136: + x9_2 + x10_2 <= 1
c137: + x0_3 + x1_3 <= 1
c138: + x0_3 + x3_3 <= 1
c139: + x0_3 + x6_3 <= 1
c140: + x0_3 + x8_3 <= 1
c141: + x1_3 + x2_3 <= 1
c142: + x1_3 + x5_3 <= 1
c143: + x1_3 + x7_3 <= 1
c144: + x2_3 + x4_3 <= 1
c145: + x2_3 + x6_3 <= 1
c146: + x2_3 + x9_3 <= 1
c147: + x3_3 + x4_3 <= 1
c148: + x3_3 + x5_3 <= 1
c149: + x3_3 + x9_3 <= 1
c150: + x4_3 + x7_3 <= 1
c151: + x4_3 + x8_3 <= 1
c152: + x5_3 + x10_3 <= 1
c153: + x6_3 + x10_3 <= 1
c154: + x7_3 + x10_3 <= 1
c155: + x8_3 + x10_3 <= 1
c156: + x9_3 + x10_3 <= 1
c157: + x0_4 + x1_4 <= 1
c158: + x0_4 + x3_4 <= 1
c159: + x0_4 + x6_4 <= 1
c160: + x0_4 + x8_4 <= 1
c161: + x1_4 + x2_4 <= 1
c162: + x1_4 + x5_4 <= 1
c163: + x1_4 + x7_4 <= 1
c164: + x2_4 + x4_4 <= 1
c165: + x2_4 + x6_4 <= 1
c166: + x2_4 + x9_4 <= 1
c167: + x3_4 + x4_4 <= 1
c168: + x3_4 + x5_4 <= 1
c169: + x3_4 + x9_4 <= 1
c170: + x4_4 + x7_4 <= 1
c171: + x4_4 + x8_4 <= 1
c172: + x5_4 + x10_4 <= 1
c173: + x6_4 + x10_4 <= 1
c174: + x7_4 + x10_4 <= 1
c175: + x8_4 + x10_4 <= 1
c176: + x9_4 + x10_4 <= 1
c177: + x0_5 + x1_5 <= 1
c178: + x0_5 + x3_5 <= 1
c179: + x0_5 + x6_5 <= 1
c180: + x0_5 + x8_5 <= 1
c181: + x1_5 + x2_5 <= 1
c182: + x1_5 + x5_5 <= 1
c183: + x1_5 + x7_5 <= 1
c184: + x2_5 + x4_5 <= 1
c185: + x2_5 + x6_5 <= 1
c186: + x2_5 + x9_5 <= 1
c187: + x3_5 + x4_5 <= 1
c188: + x3_5 + x5_5 <= 1
c189: + x3_5 + x9_5 <= 1
c190: + x4_5 + x7_5 <= 1
c191: + x4_5 + x8_5 <= 1
c192: + x5_5 + x10_5 <= 1
c193: + x6_5 + x10_5 <= 1
c194: + x7_5 + x10_5 <= 1
c195: + x8_5 + x10_5 <= 1
c196: + x9_5 + x10_5 <= 1



Binary
y_0
x0_0
x1_0
x2_0
x3_0
x4_0
x5_0
x6_0
x7_0
x8_0
x9_0
x10_0

y_1
x0_1
x1_1
x2_1
x3_1
x4_1
x5_1
x6_1
x7_1
x8_1
x9_1
x10_1

y_2
x0_2
x1_2
x2_2
x3_2
x4_2
x5_2
x6_2
x7_2
x8_2
x9_2
x10_2

y_3
x0_3
x1_3
x2_3
x3_3
x4_3
x5_3
x6_3
x7_3
x8_3
x9_3
x10_3

y_4
x0_4
x1_4
x2_4
x3_4
x4_4
x5_4
x6_4
x7_4
x8_4
x9_4
x10_4

y_5
x0_5
x1_5
x2_5
x3_5
x4_5
x5_5
x6_5
x7_5
x8_5
x9_5
x10_5


End